09-routing/solutions/XSH-n20-k4-51.opt.sol
Route #1: 4 20 13 16 2 6
Route #2: 11 7 15 10
Route #3: 5 9 12 1
Route #4: 14 8 17 3 18 19
Cost 491
